n = 100;
C = 487;
w = [693,105,625,717,124,157,465,133,332,653,663,310,855,568,114,13,992,556,371,605,810,638,109,762,573,991,715,407,258,824,145,696,545,575,422,938,928,58,369,98,279,331,177,339,811,365,889,764,768,902,292,737,650,590,77,120,517,471,626,631,707,365,641,893,86,703,220,230,679,334,50,483,175,22,334,489,955,12,956,600,653,279,576,871,121,265,721,990,381,519,599,581,477,759,433,563,53,10,418,281];
p = [693,105,625,717,124,157,465,133,332,653,663,310,855,568,114,13,992,556,371,605,810,638,109,762,573,991,715,407,258,824,145,696,545,575,422,938,928,58,369,98,279,331,177,339,811,365,889,764,768,902,292,737,650,590,77,120,517,471,626,631,707,365,641,893,86,703,220,230,679,334,50,483,175,22,334,489,955,12,956,600,653,279,576,871,121,265,721,990,381,519,599,581,477,759,433,563,53,10,418,281];
